NAME          
ROWS
 N  OBJ
 L  c1
COLUMNS
    MARKER    'MARKER'                 'INTORG'
    x[1]      c1        430
    x[1]      OBJ       -356
    x[2]      c1        906
    x[2]      OBJ       -931
    x[3]      c1        776
    x[3]      OBJ       -758
    x[4]      c1        788
    x[4]      OBJ       -816
    x[5]      c1        324
    x[5]      OBJ       -313
    x[6]      c1        833
    x[6]      OBJ       -892
    x[7]      c1        235
    x[7]      OBJ       -235
    x[8]      c1        257
    x[8]      OBJ       -318
    x[9]      c1        334
    x[9]      OBJ       -311
    x[10]     c1        1004
    x[10]     OBJ       -931
    x[11]     c1        580
    x[11]     OBJ       -617
    x[12]     c1        1047
    x[12]     OBJ       -958
    x[13]     c1        599
    x[13]     OBJ       -576
    x[14]     c1        186
    x[14]     OBJ       -276
    x[15]     c1        743
    x[15]     OBJ       -779
    x[16]     c1        420
    x[16]     OBJ       -398
    x[17]     c1        421
    x[17]     OBJ       -374
    x[18]     c1        1048
    x[18]     OBJ       -980
    x[19]     c1        219
    x[19]     OBJ       -298
    x[20]     c1        918
    x[20]     OBJ       -822
    x[21]     c1        609
    x[21]     OBJ       -693
    x[22]     c1        905
    x[22]     OBJ       -901
    x[23]     c1        273
    x[23]     OBJ       -278
    x[24]     c1        1009
    x[24]     OBJ       -946
    x[25]     c1        472
    x[25]     OBJ       -544
    x[26]     c1        849
    x[26]     OBJ       -772
    x[27]     c1        253
    x[27]     OBJ       -306
    x[28]     c1        1001
    x[28]     OBJ       -964
    x[29]     c1        157
    x[29]     OBJ       -161
    x[30]     c1        770
    x[30]     OBJ       -715
    x[31]     c1        505
    x[31]     OBJ       -510
    x[32]     c1        101
    x[32]     OBJ       -99
    x[33]     c1        -63
    x[33]     OBJ       -25
    x[34]     c1        400
    x[34]     OBJ       -461
    x[35]     c1        485
    x[35]     OBJ       -459
    x[36]     c1        581
    x[36]     OBJ       -559
    x[37]     c1        302
    x[37]     OBJ       -348
    x[38]     c1        44
    x[38]     OBJ       -55
    x[39]     c1        541
    x[39]     OBJ       -557
    x[40]     c1        694
    x[40]     OBJ       -628
    x[41]     c1        30
    x[41]     OBJ       -35
    x[42]     c1        527
    x[42]     OBJ       -608
    x[43]     c1        66
    x[43]     OBJ       -161
    x[44]     c1        1038
    x[44]     OBJ       -954
    x[45]     c1        678
    x[45]     OBJ       -660
    x[46]     c1        128
    x[46]     OBJ       -84
    x[47]     c1        749
    x[47]     OBJ       -697
    x[48]     c1        250
    x[48]     OBJ       -316
    x[49]     c1        336
    x[49]     OBJ       -354
    x[50]     c1        732
    x[50]     OBJ       -680
RHS
    rhs       c1        13245
RANGES
BOUNDS
 LO bounds    x[1]      0
 PL bounds    x[1]
 LO bounds    x[2]      0
 PL bounds    x[2]
 LO bounds    x[3]      0
 PL bounds    x[3]
 LO bounds    x[4]      0
 PL bounds    x[4]
 LO bounds    x[5]      0
 PL bounds    x[5]
 LO bounds    x[6]      0
 PL bounds    x[6]
 LO bounds    x[7]      0
 PL bounds    x[7]
 LO bounds    x[8]      0
 PL bounds    x[8]
 LO bounds    x[9]      0
 PL bounds    x[9]
 LO bounds    x[10]     0
 PL bounds    x[10]
 LO bounds    x[11]     0
 PL bounds    x[11]
 LO bounds    x[12]     0
 PL bounds    x[12]
 LO bounds    x[13]     0
 PL bounds    x[13]
 LO bounds    x[14]     0
 PL bounds    x[14]
 LO bounds    x[15]     0
 PL bounds    x[15]
 LO bounds    x[16]     0
 PL bounds    x[16]
 LO bounds    x[17]     0
 PL bounds    x[17]
 LO bounds    x[18]     0
 PL bounds    x[18]
 LO bounds    x[19]     0
 PL bounds    x[19]
 LO bounds    x[20]     0
 PL bounds    x[20]
 LO bounds    x[21]     0
 PL bounds    x[21]
 LO bounds    x[22]     0
 PL bounds    x[22]
 LO bounds    x[23]     0
 PL bounds    x[23]
 LO bounds    x[24]     0
 PL bounds    x[24]
 LO bounds    x[25]     0
 PL bounds    x[25]
 LO bounds    x[26]     0
 PL bounds    x[26]
 LO bounds    x[27]     0
 PL bounds    x[27]
 LO bounds    x[28]     0
 PL bounds    x[28]
 LO bounds    x[29]     0
 PL bounds    x[29]
 LO bounds    x[30]     0
 PL bounds    x[30]
 LO bounds    x[31]     0
 PL bounds    x[31]
 LO bounds    x[32]     0
 PL bounds    x[32]
 LO bounds    x[33]     0
 PL bounds    x[33]
 LO bounds    x[34]     0
 PL bounds    x[34]
 LO bounds    x[35]     0
 PL bounds    x[35]
 LO bounds    x[36]     0
 PL bounds    x[36]
 LO bounds    x[37]     0
 PL bounds    x[37]
 LO bounds    x[38]     0
 PL bounds    x[38]
 LO bounds    x[39]     0
 PL bounds    x[39]
 LO bounds    x[40]     0
 PL bounds    x[40]
 LO bounds    x[41]     0
 PL bounds    x[41]
 LO bounds    x[42]     0
 PL bounds    x[42]
 LO bounds    x[43]     0
 PL bounds    x[43]
 LO bounds    x[44]     0
 PL bounds    x[44]
 LO bounds    x[45]     0
 PL bounds    x[45]
 LO bounds    x[46]     0
 PL bounds    x[46]
 LO bounds    x[47]     0
 PL bounds    x[47]
 LO bounds    x[48]     0
 PL bounds    x[48]
 LO bounds    x[49]     0
 PL bounds    x[49]
 LO bounds    x[50]     0
 PL bounds    x[50]
ENDATA
